p cnf 64 258
1 17 33 49 0
-1 -17 0
-1 -33 0
-1 -49 0
-17 -1 0
-17 -33 0
-17 -49 0
-33 -1 0
-33 -17 0
-33 -49 0
-49 -1 0
-49 -17 0
-49 -33 0
2 18 34 50 0
-2 -18 0
-2 -34 0
-2 -50 0
-18 -2 0
-18 -34 0
-18 -50 0
-34 -2 0
-34 -18 0
-34 -50 0
-50 -2 0
-50 -18 0
-50 -34 0
3 19 35 51 0
-3 -19 0
-3 -35 0
-3 -51 0
-19 -3 0
-19 -35 0
-19 -51 0
-35 -3 0
-35 -19 0
-35 -51 0
-51 -3 0
-51 -19 0
-51 -35 0
4 20 36 52 0
-4 -20 0
-4 -36 0
-4 -52 0
-20 -4 0
-20 -36 0
-20 -52 0
-36 -4 0
-36 -20 0
-36 -52 0
-52 -4 0
-52 -20 0
-52 -36 0
5 21 37 53 0
-5 -21 0
-5 -37 0
-5 -53 0
-21 -5 0
-21 -37 0
-21 -53 0
-37 -5 0
-37 -21 0
-37 -53 0
-53 -5 0
-53 -21 0
-53 -37 0
6 22 38 54 0
-6 -22 0
-6 -38 0
-6 -54 0
-22 -6 0
-22 -38 0
-22 -54 0
-38 -6 0
-38 -22 0
-38 -54 0
-54 -6 0
-54 -22 0
-54 -38 0
7 23 39 55 0
-7 -23 0
-7 -39 0
-7 -55 0
-23 -7 0
-23 -39 0
-23 -55 0
-39 -7 0
-39 -23 0
-39 -55 0
-55 -7 0
-55 -23 0
-55 -39 0
8 24 40 56 0
-8 -24 0
-8 -40 0
-8 -56 0
-24 -8 0
-24 -40 0
-24 -56 0
-40 -8 0
-40 -24 0
-40 -56 0
-56 -8 0
-56 -24 0
-56 -40 0
9 25 41 57 0
-9 -25 0
-9 -41 0
-9 -57 0
-25 -9 0
-25 -41 0
-25 -57 0
-41 -9 0
-41 -25 0
-41 -57 0
-57 -9 0
-57 -25 0
-57 -41 0
10 26 42 58 0
-10 -26 0
-10 -42 0
-10 -58 0
-26 -10 0
-26 -42 0
-26 -58 0
-42 -10 0
-42 -26 0
-42 -58 0
-58 -10 0
-58 -26 0
-58 -42 0
11 27 43 59 0
-11 -27 0
-11 -43 0
-11 -59 0
-27 -11 0
-27 -43 0
-27 -59 0
-43 -11 0
-43 -27 0
-43 -59 0
-59 -11 0
-59 -27 0
-59 -43 0
12 28 44 60 0
-12 -28 0
-12 -44 0
-12 -60 0
-28 -12 0
-28 -44 0
-28 -60 0
-44 -12 0
-44 -28 0
-44 -60 0
-60 -12 0
-60 -28 0
-60 -44 0
13 29 45 61 0
-13 -29 0
-13 -45 0
-13 -61 0
-29 -13 0
-29 -45 0
-29 -61 0
-45 -13 0
-45 -29 0
-45 -61 0
-61 -13 0
-61 -29 0
-61 -45 0
14 30 46 62 0
-14 -30 0
-14 -46 0
-14 -62 0
-30 -14 0
-30 -46 0
-30 -62 0
-46 -14 0
-46 -30 0
-46 -62 0
-62 -14 0
-62 -30 0
-62 -46 0
15 31 47 63 0
-15 -31 0
-15 -47 0
-15 -63 0
-31 -15 0
-31 -47 0
-31 -63 0
-47 -15 0
-47 -31 0
-47 -63 0
-63 -15 0
-63 -31 0
-63 -47 0
16 32 48 64 0
-16 -32 0
-16 -48 0
-16 -64 0
-32 -16 0
-32 -48 0
-32 -64 0
-48 -16 0
-48 -32 0
-48 -64 0
-64 -16 0
-64 -32 0
-64 -48 0
1 2 5 6 0
17 18 21 22 0
33 34 37 38 0
49 50 53 54 0
3 4 7 8 0
19 20 23 24 0
35 36 39 40 0
51 52 55 56 0
9 10 13 14 0
25 26 29 30 0
41 42 45 46 0
57 58 61 62 0
11 12 15 16 0
27 28 31 32 0
43 44 47 48 0
59 60 63 64 0
1 5 9 13 0
17 21 25 29 0
33 37 41 45 0
49 53 57 61 0
2 6 10 14 0
18 22 26 30 0
34 38 42 46 0
50 54 58 62 0
3 7 11 15 0
19 23 27 31 0
35 39 43 47 0
51 55 59 63 0
4 8 12 16 0
20 24 28 32 0
36 40 44 48 0
52 56 60 64 0
1 2 3 4 0
17 18 19 20 0
33 34 35 36 0
49 50 51 52 0
5 6 7 8 0
21 22 23 24 0
37 38 39 40 0
53 54 55 56 0
9 10 11 12 0
25 26 27 28 0
41 42 43 44 0
57 58 59 60 0
13 14 15 16 0
29 30 31 32 0
45 46 47 48 0
61 62 63 64 0
1 0
18 0
